p cnf 200 1110
-101 28 0
-101 5 0
-101 47 0
-101 99 0
-101 -10 0
-101 -56 0
-101 -29 0
-101 -23 0
-101 -15 0
-101 -55 0
101 -28 -5 -47 -99 10 56 29 23 15 55 0
-102 90 0
-102 -23 0
-102 -41 0
-102 53 0
-102 -58 0
-102 -49 0
-102 42 0
-102 -26 0
-102 20 0
-102 1 0
102 -90 23 41 -53 58 49 -42 26 -20 -1 0
-103 14 0
-103 -53 0
-103 20 0
-103 -64 0
-103 -93 0
-103 44 0
-103 100 0
-103 36 0
-103 -6 0
-103 -86 0
103 -14 53 -20 64 93 -44 -100 -36 6 86 0
-104 53 0
-104 -24 0
-104 32 0
-104 19 0
-104 56 0
-104 -100 0
-104 -45 0
-104 39 0
-104 -54 0
-104 27 0
104 -53 24 -32 -19 -56 100 45 -39 54 -27 0
-105 -62 0
-105 -32 0
-105 46 0
-105 -7 0
-105 -39 0
-105 -43 0
-105 18 0
-105 89 0
-105 9 0
-105 78 0
105 62 32 -46 7 39 43 -18 -89 -9 -78 0
-106 29 0
-106 -57 0
-106 -34 0
-106 -88 0
-106 50 0
-106 -37 0
-106 -98 0
-106 -54 0
-106 -16 0
-106 86 0
106 -29 57 34 88 -50 37 98 54 16 -86 0
-107 -41 0
-107 15 0
-107 71 0
-107 -61 0
-107 -2 0
-107 25 0
-107 85 0
-107 -91 0
-107 -34 0
-107 -46 0
107 41 -15 -71 61 2 -25 -85 91 34 46 0
-108 58 0
-108 -45 0
-108 74 0
-108 83 0
-108 62 0
-108 -29 0
-108 -96 0
-108 48 0
-108 98 0
-108 -46 0
108 -58 45 -74 -83 -62 29 96 -48 -98 46 0
-109 -18 0
-109 53 0
-109 6 0
-109 -67 0
-109 -12 0
-109 14 0
-109 -64 0
-109 -39 0
-109 -22 0
-109 -79 0
109 18 -53 -6 67 12 -14 64 39 22 79 0
-110 -40 0
-110 30 0
-110 39 0
-110 -76 0
-110 -98 0
-110 -11 0
-110 -14 0
-110 94 0
-110 2 0
-110 -23 0
110 40 -30 -39 76 98 11 14 -94 -2 23 0
101 102 103 104 105 106 107 108 109 110 0
-111 -20 0
-111 -88 0
-111 -96 0
-111 29 0
-111 36 0
-111 66 0
-111 12 0
-111 -38 0
-111 -46 0
-111 -79 0
111 20 88 96 -29 -36 -66 -12 38 46 79 0
-112 -86 0
-112 -4 0
-112 -16 0
-112 23 0
-112 20 0
-112 -24 0
-112 -84 0
-112 -69 0
-112 85 0
-112 -10 0
112 86 4 16 -23 -20 24 84 69 -85 10 0
-113 64 0
-113 34 0
-113 -92 0
-113 33 0
-113 -100 0
-113 42 0
-113 -78 0
-113 -73 0
-113 51 0
-113 5 0
113 -64 -34 92 -33 100 -42 78 73 -51 -5 0
-114 76 0
-114 -16 0
-114 -50 0
-114 31 0
-114 -82 0
-114 29 0
-114 -83 0
-114 -57 0
-114 -52 0
-114 40 0
114 -76 16 50 -31 82 -29 83 57 52 -40 0
-115 23 0
-115 -93 0
-115 -100 0
-115 31 0
-115 -76 0
-115 -61 0
-115 53 0
-115 2 0
-115 43 0
-115 -68 0
115 -23 93 100 -31 76 61 -53 -2 -43 68 0
-116 -69 0
-116 -79 0
-116 38 0
-116 59 0
-116 -48 0
-116 -2 0
-116 -23 0
-116 -40 0
-116 34 0
-116 -57 0
116 69 79 -38 -59 48 2 23 40 -34 57 0
-117 14 0
-117 -2 0
-117 -92 0
-117 52 0
-117 -10 0
-117 -82 0
-117 -96 0
-117 51 0
-117 -29 0
-117 -31 0
117 -14 2 92 -52 10 82 96 -51 29 31 0
-118 -80 0
-118 -11 0
-118 59 0
-118 39 0
-118 82 0
-118 88 0
-118 42 0
-118 35 0
-118 50 0
-118 5 0
118 80 11 -59 -39 -82 -88 -42 -35 -50 -5 0
-119 -56 0
-119 62 0
-119 45 0
-119 -1 0
-119 -3 0
-119 -50 0
-119 76 0
-119 -43 0
-119 -35 0
-119 89 0
119 56 -62 -45 1 3 50 -76 43 35 -89 0
-120 35 0
-120 -10 0
-120 -83 0
-120 17 0
-120 25 0
-120 -46 0
-120 4 0
-120 -68 0
-120 14 0
-120 -29 0
120 -35 10 83 -17 -25 46 -4 68 -14 29 0
111 112 113 114 115 116 117 118 119 120 0
-121 -27 0
-121 3 0
-121 -18 0
-121 49 0
-121 13 0
-121 -48 0
-121 30 0
-121 -42 0
-121 -41 0
-121 6 0
121 27 -3 18 -49 -13 48 -30 42 41 -6 0
-122 97 0
-122 41 0
-122 73 0
-122 -83 0
-122 -40 0
-122 37 0
-122 -10 0
-122 -48 0
-122 -7 0
-122 -32 0
122 -97 -41 -73 83 40 -37 10 48 7 32 0
-123 -82 0
-123 -92 0
-123 11 0
-123 -48 0
-123 -35 0
-123 -89 0
-123 97 0
-123 36 0
-123 -21 0
-123 93 0
123 82 92 -11 48 35 89 -97 -36 21 -93 0
-124 88 0
-124 -83 0
-124 7 0
-124 -29 0
-124 50 0
-124 61 0
-124 -2 0
-124 -53 0
-124 -19 0
-124 -55 0
124 -88 83 -7 29 -50 -61 2 53 19 55 0
-125 20 0
-125 98 0
-125 -80 0
-125 79 0
-125 13 0
-125 -50 0
-125 -21 0
-125 69 0
-125 57 0
-125 16 0
125 -20 -98 80 -79 -13 50 21 -69 -57 -16 0
-126 -75 0
-126 31 0
-126 -40 0
-126 -72 0
-126 -14 0
-126 18 0
-126 8 0
-126 70 0
-126 -56 0
-126 -22 0
126 75 -31 40 72 14 -18 -8 -70 56 22 0
-127 -22 0
-127 60 0
-127 43 0
-127 -28 0
-127 -57 0
-127 -23 0
-127 -83 0
-127 -75 0
-127 85 0
-127 69 0
127 22 -60 -43 28 57 23 83 75 -85 -69 0
-128 64 0
-128 42 0
-128 -48 0
-128 -53 0
-128 80 0
-128 7 0
-128 28 0
-128 49 0
-128 58 0
-128 -3 0
128 -64 -42 48 53 -80 -7 -28 -49 -58 3 0
-129 95 0
-129 -43 0
-129 92 0
-129 32 0
-129 12 0
-129 8 0
-129 38 0
-129 -85 0
-129 -80 0
-129 -7 0
129 -95 43 -92 -32 -12 -8 -38 85 80 7 0
-130 27 0
-130 100 0
-130 94 0
-130 6 0
-130 -63 0
-130 71 0
-130 85 0
-130 -55 0
-130 -7 0
-130 38 0
130 -27 -100 -94 -6 63 -71 -85 55 7 -38 0
121 122 123 124 125 126 127 128 129 130 0
-131 -64 0
-131 -96 0
-131 -54 0
-131 71 0
-131 -2 0
-131 60 0
-131 -18 0
-131 -15 0
-131 -50 0
-131 30 0
131 64 96 54 -71 2 -60 18 15 50 -30 0
-132 -15 0
-132 -98 0
-132 -10 0
-132 -29 0
-132 6 0
-132 -48 0
-132 -91 0
-132 -74 0
-132 -22 0
-132 84 0
132 15 98 10 29 -6 48 91 74 22 -84 0
-133 -73 0
-133 -88 0
-133 85 0
-133 1 0
-133 57 0
-133 -33 0
-133 -7 0
-133 -61 0
-133 -6 0
-133 -18 0
133 73 88 -85 -1 -57 33 7 61 6 18 0
-134 -58 0
-134 -65 0
-134 -87 0
-134 62 0
-134 100 0
-134 2 0
-134 31 0
-134 -19 0
-134 -67 0
-134 89 0
134 58 65 87 -62 -100 -2 -31 19 67 -89 0
-135 -79 0
-135 18 0
-135 3 0
-135 -99 0
-135 59 0
-135 -11 0
-135 -94 0
-135 -2 0
-135 -36 0
-135 86 0
135 79 -18 -3 99 -59 11 94 2 36 -86 0
-136 19 0
-136 -18 0
-136 -60 0
-136 43 0
-136 -16 0
-136 -91 0
-136 81 0
-136 14 0
-136 -40 0
-136 73 0
136 -19 18 60 -43 16 91 -81 -14 40 -73 0
-137 40 0
-137 91 0
-137 80 0
-137 -43 0
-137 79 0
-137 55 0
-137 41 0
-137 99 0
-137 67 0
-137 45 0
137 -40 -91 -80 43 -79 -55 -41 -99 -67 -45 0
-138 -84 0
-138 -52 0
-138 59 0
-138 9 0
-138 -8 0
-138 94 0
-138 74 0
-138 96 0
-138 83 0
-138 -88 0
138 84 52 -59 -9 8 -94 -74 -96 -83 88 0
-139 -68 0
-139 -93 0
-139 -9 0
-139 -1 0
-139 37 0
-139 -96 0
-139 -27 0
-139 -72 0
-139 -11 0
-139 51 0
139 68 93 9 1 -37 96 27 72 11 -51 0
-140 -60 0
-140 43 0
-140 -56 0
-140 -12 0
-140 -91 0
-140 82 0
-140 38 0
-140 -20 0
-140 59 0
-140 -72 0
140 60 -43 56 12 91 -82 -38 20 -59 72 0
131 132 133 134 135 136 137 138 139 140 0
-141 92 0
-141 -42 0
-141 -55 0
-141 -84 0
-141 93 0
-141 -67 0
-141 -81 0
-141 49 0
-141 -54 0
-141 85 0
141 -92 42 55 84 -93 67 81 -49 54 -85 0
-142 -89 0
-142 76 0
-142 -42 0
-142 -51 0
-142 38 0
-142 46 0
-142 58 0
-142 74 0
-142 -78 0
-142 -26 0
142 89 -76 42 51 -38 -46 -58 -74 78 26 0
-143 -25 0
-143 1 0
-143 -57 0
-143 3 0
-143 -19 0
-143 -73 0
-143 68 0
-143 11 0
-143 -15 0
-143 21 0
143 25 -1 57 -3 19 73 -68 -11 15 -21 0
-144 94 0
-144 -87 0
-144 77 0
-144 -54 0
-144 -26 0
-144 -59 0
-144 -63 0
-144 -35 0
-144 23 0
-144 -2 0
144 -94 87 -77 54 26 59 63 35 -23 2 0
-145 -19 0
-145 -75 0
-145 98 0
-145 92 0
-145 -83 0
-145 -85 0
-145 -39 0
-145 -30 0
-145 16 0
-145 10 0
145 19 75 -98 -92 83 85 39 30 -16 -10 0
-146 -35 0
-146 97 0
-146 -39 0
-146 59 0
-146 -87 0
-146 -51 0
-146 78 0
-146 -26 0
-146 47 0
-146 -8 0
146 35 -97 39 -59 87 51 -78 26 -47 8 0
-147 79 0
-147 96 0
-147 31 0
-147 -21 0
-147 47 0
-147 38 0
-147 -65 0
-147 20 0
-147 -68 0
-147 75 0
147 -79 -96 -31 21 -47 -38 65 -20 68 -75 0
-148 5 0
-148 89 0
-148 -19 0
-148 59 0
-148 75 0
-148 42 0
-148 43 0
-148 98 0
-148 16 0
-148 24 0
148 -5 -89 19 -59 -75 -42 -43 -98 -16 -24 0
-149 -55 0
-149 -17 0
-149 12 0
-149 2 0
-149 63 0
-149 -68 0
-149 -45 0
-149 97 0
-149 -15 0
-149 -90 0
149 55 17 -12 -2 -63 68 45 -97 15 90 0
-150 2 0
-150 46 0
-150 42 0
-150 83 0
-150 72 0
-150 53 0
-150 -48 0
-150 -4 0
-150 -36 0
-150 21 0
150 -2 -46 -42 -83 -72 -53 48 4 36 -21 0
141 142 143 144 145 146 147 148 149 150 0
-151 -87 0
-151 48 0
-151 77 0
-151 -79 0
-151 -14 0
-151 85 0
-151 18 0
-151 62 0
-151 32 0
-151 82 0
151 87 -48 -77 79 14 -85 -18 -62 -32 -82 0
-152 -6 0
-152 7 0
-152 -61 0
-152 12 0
-152 -77 0
-152 51 0
-152 63 0
-152 9 0
-152 13 0
-152 -35 0
152 6 -7 61 -12 77 -51 -63 -9 -13 35 0
-153 -16 0
-153 5 0
-153 -66 0
-153 -55 0
-153 14 0
-153 28 0
-153 23 0
-153 70 0
-153 52 0
-153 93 0
153 16 -5 66 55 -14 -28 -23 -70 -52 -93 0
-154 -95 0
-154 56 0
-154 55 0
-154 -97 0
-154 69 0
-154 -26 0
-154 -91 0
-154 -24 0
-154 46 0
-154 -41 0
154 95 -56 -55 97 -69 26 91 24 -46 41 0
-155 21 0
-155 -99 0
-155 18 0
-155 35 0
-155 -79 0
-155 -88 0
-155 -27 0
-155 23 0
-155 63 0
-155 -80 0
155 -21 99 -18 -35 79 88 27 -23 -63 80 0
-156 89 0
-156 -76 0
-156 -5 0
-156 87 0
-156 64 0
-156 -15 0
-156 37 0
-156 58 0
-156 28 0
-156 -36 0
156 -89 76 5 -87 -64 15 -37 -58 -28 36 0
-157 75 0
-157 -44 0
-157 -79 0
-157 37 0
-157 -70 0
-157 -94 0
-157 -5 0
-157 38 0
-157 -29 0
-157 -42 0
157 -75 44 79 -37 70 94 5 -38 29 42 0
-158 50 0
-158 89 0
-158 56 0
-158 -63 0
-158 23 0
-158 99 0
-158 -59 0
-158 -58 0
-158 -90 0
-158 28 0
158 -50 -89 -56 63 -23 -99 59 58 90 -28 0
-159 -40 0
-159 82 0
-159 -29 0
-159 27 0
-159 69 0
-159 -41 0
-159 -6 0
-159 -63 0
-159 -80 0
-159 96 0
159 40 -82 29 -27 -69 41 6 63 80 -96 0
-160 21 0
-160 31 0
-160 -36 0
-160 -38 0
-160 -23 0
-160 70 0
-160 82 0
-160 -81 0
-160 -9 0
-160 -47 0
160 -21 -31 36 38 23 -70 -82 81 9 47 0
151 152 153 154 155 156 157 158 159 160 0
-161 -5 0
-161 40 0
-161 -83 0
-161 -52 0
-161 2 0
-161 -72 0
-161 53 0
-161 -90 0
-161 -9 0
-161 39 0
161 5 -40 83 52 -2 72 -53 90 9 -39 0
-162 -77 0
-162 -16 0
-162 64 0
-162 -21 0
-162 67 0
-162 74 0
-162 44 0
-162 3 0
-162 -86 0
-162 46 0
162 77 16 -64 21 -67 -74 -44 -3 86 -46 0
-163 28 0
-163 88 0
-163 -100 0
-163 77 0
-163 -32 0
-163 -45 0
-163 67 0
-163 99 0
-163 -70 0
-163 2 0
163 -28 -88 100 -77 32 45 -67 -99 70 -2 0
-164 95 0
-164 51 0
-164 64 0
-164 -13 0
-164 6 0
-164 -36 0
-164 92 0
-164 -37 0
-164 86 0
-164 73 0
164 -95 -51 -64 13 -6 36 -92 37 -86 -73 0
-165 -66 0
-165 -81 0
-165 41 0
-165 21 0
-165 60 0
-165 25 0
-165 -59 0
-165 -63 0
-165 -13 0
-165 100 0
165 66 81 -41 -21 -60 -25 59 63 13 -100 0
-166 -82 0
-166 -35 0
-166 -25 0
-166 20 0
-166 77 0
-166 -91 0
-166 34 0
-166 -43 0
-166 70 0
-166 -94 0
166 82 35 25 -20 -77 91 -34 43 -70 94 0
-167 -78 0
-167 -35 0
-167 99 0
-167 -51 0
-167 -10 0
-167 34 0
-167 -20 0
-167 14 0
-167 -80 0
-167 -38 0
167 78 35 -99 51 10 -34 20 -14 80 38 0
-168 11 0
-168 -81 0
-168 89 0
-168 -62 0
-168 5 0
-168 -12 0
-168 -39 0
-168 31 0
-168 -27 0
-168 86 0
168 -11 81 -89 62 -5 12 39 -31 27 -86 0
-169 55 0
-169 100 0
-169 -15 0
-169 37 0
-169 4 0
-169 42 0
-169 -98 0
-169 9 0
-169 -22 0
-169 -88 0
169 -55 -100 15 -37 -4 -42 98 -9 22 88 0
-170 48 0
-170 77 0
-170 56 0
-170 95 0
-170 -44 0
-170 64 0
-170 -86 0
-170 -14 0
-170 30 0
-170 -37 0
170 -48 -77 -56 -95 44 -64 86 14 -30 37 0
161 162 163 164 165 166 167 168 169 170 0
-171 -27 0
-171 -49 0
-171 -80 0
-171 70 0
-171 89 0
-171 -1 0
-171 -59 0
-171 60 0
-171 -51 0
-171 -55 0
171 27 49 80 -70 -89 1 59 -60 51 55 0
-172 92 0
-172 85 0
-172 -67 0
-172 55 0
-172 43 0
-172 79 0
-172 -64 0
-172 39 0
-172 -65 0
-172 -23 0
172 -92 -85 67 -55 -43 -79 64 -39 65 23 0
-173 -66 0
-173 -98 0
-173 34 0
-173 -45 0
-173 89 0
-173 -22 0
-173 -94 0
-173 -52 0
-173 -17 0
-173 -12 0
173 66 98 -34 45 -89 22 94 52 17 12 0
-174 59 0
-174 -51 0
-174 -96 0
-174 -95 0
-174 5 0
-174 -81 0
-174 -78 0
-174 -65 0
-174 -12 0
-174 -18 0
174 -59 51 96 95 -5 81 78 65 12 18 0
-175 -20 0
-175 77 0
-175 37 0
-175 15 0
-175 84 0
-175 -62 0
-175 57 0
-175 -29 0
-175 -55 0
-175 -46 0
175 20 -77 -37 -15 -84 62 -57 29 55 46 0
-176 -32 0
-176 -81 0
-176 -2 0
-176 51 0
-176 -46 0
-176 -94 0
-176 24 0
-176 -39 0
-176 -1 0
-176 6 0
176 32 81 2 -51 46 94 -24 39 1 -6 0
-177 -93 0
-177 -89 0
-177 -36 0
-177 -44 0
-177 -84 0
-177 49 0
-177 50 0
-177 72 0
-177 42 0
-177 -20 0
177 93 89 36 44 84 -49 -50 -72 -42 20 0
-178 44 0
-178 9 0
-178 59 0
-178 -81 0
-178 -74 0
-178 77 0
-178 -52 0
-178 93 0
-178 -50 0
-178 76 0
178 -44 -9 -59 81 74 -77 52 -93 50 -76 0
-179 -7 0
-179 -19 0
-179 -27 0
-179 -53 0
-179 28 0
-179 72 0
-179 83 0
-179 55 0
-179 -80 0
-179 43 0
179 7 19 27 53 -28 -72 -83 -55 80 -43 0
-180 44 0
-180 -5 0
-180 -12 0
-180 62 0
-180 90 0
-180 -58 0
-180 -65 0
-180 -79 0
-180 23 0
-180 77 0
180 -44 5 12 -62 -90 58 65 79 -23 -77 0
171 172 173 174 175 176 177 178 179 180 0
-181 75 0
-181 12 0
-181 28 0
-181 73 0
-181 93 0
-181 -53 0
-181 47 0
-181 -94 0
-181 100 0
-181 -76 0
181 -75 -12 -28 -73 -93 53 -47 94 -100 76 0
-182 8 0
-182 84 0
-182 72 0
-182 -73 0
-182 98 0
-182 -41 0
-182 49 0
-182 -52 0
-182 -81 0
-182 89 0
182 -8 -84 -72 73 -98 41 -49 52 81 -89 0
-183 11 0
-183 98 0
-183 62 0
-183 94 0
-183 92 0
-183 18 0
-183 -83 0
-183 76 0
-183 -37 0
-183 -32 0
183 -11 -98 -62 -94 -92 -18 83 -76 37 32 0
-184 -4 0
-184 6 0
-184 -65 0
-184 13 0
-184 12 0
-184 82 0
-184 -75 0
-184 76 0
-184 -31 0
-184 -80 0
184 4 -6 65 -13 -12 -82 75 -76 31 80 0
-185 -44 0
-185 -91 0
-185 -43 0
-185 -83 0
-185 98 0
-185 15 0
-185 -23 0
-185 79 0
-185 18 0
-185 87 0
185 44 91 43 83 -98 -15 23 -79 -18 -87 0
-186 -77 0
-186 60 0
-186 23 0
-186 -53 0
-186 68 0
-186 -97 0
-186 67 0
-186 62 0
-186 42 0
-186 -26 0
186 77 -60 -23 53 -68 97 -67 -62 -42 26 0
-187 64 0
-187 34 0
-187 -43 0
-187 -16 0
-187 37 0
-187 25 0
-187 80 0
-187 56 0
-187 8 0
-187 -47 0
187 -64 -34 43 16 -37 -25 -80 -56 -8 47 0
-188 41 0
-188 92 0
-188 94 0
-188 52 0
-188 -26 0
-188 80 0
-188 -31 0
-188 93 0
-188 -28 0
-188 77 0
188 -41 -92 -94 -52 26 -80 31 -93 28 -77 0
-189 33 0
-189 36 0
-189 65 0
-189 -1 0
-189 -13 0
-189 -59 0
-189 88 0
-189 -5 0
-189 57 0
-189 18 0
189 -33 -36 -65 1 13 59 -88 5 -57 -18 0
-190 57 0
-190 73 0
-190 -62 0
-190 87 0
-190 -6 0
-190 27 0
-190 39 0
-190 48 0
-190 12 0
-190 -52 0
190 -57 -73 62 -87 6 -27 -39 -48 -12 52 0
181 182 183 184 185 186 187 188 189 190 0
-191 -90 0
-191 44 0
-191 -50 0
-191 -100 0
-191 -12 0
-191 69 0
-191 -89 0
-191 -28 0
-191 64 0
-191 -63 0
191 90 -44 50 100 12 -69 89 28 -64 63 0
-192 -44 0
-192 -62 0
-192 65 0
-192 1 0
-192 -5 0
-192 -79 0
-192 59 0
-192 -92 0
-192 -9 0
-192 91 0
192 44 62 -65 -1 5 79 -59 92 9 -91 0
-193 70 0
-193 67 0
-193 -68 0
-193 61 0
-193 24 0
-193 -31 0
-193 -13 0
-193 -60 0
-193 -19 0
-193 -79 0
193 -70 -67 68 -61 -24 31 13 60 19 79 0
-194 40 0
-194 -30 0
-194 93 0
-194 -60 0
-194 99 0
-194 -1 0
-194 -62 0
-194 -26 0
-194 74 0
-194 -28 0
194 -40 30 -93 60 -99 1 62 26 -74 28 0
-195 -28 0
-195 -37 0
-195 1 0
-195 86 0
-195 14 0
-195 92 0
-195 -9 0
-195 -66 0
-195 20 0
-195 45 0
195 28 37 -1 -86 -14 -92 9 66 -20 -45 0
-196 43 0
-196 59 0
-196 -24 0
-196 -83 0
-196 -35 0
-196 17 0
-196 -92 0
-196 -30 0
-196 69 0
-196 62 0
196 -43 -59 24 83 35 -17 92 30 -69 -62 0
-197 -21 0
-197 2 0
-197 -83 0
-197 -58 0
-197 17 0
-197 -99 0
-197 -68 0
-197 -7 0
-197 -37 0
-197 5 0
197 21 -2 83 58 -17 99 68 7 37 -5 0
-198 -46 0
-198 45 0
-198 -47 0
-198 -86 0
-198 13 0
-198 -62 0
-198 85 0
-198 79 0
-198 6 0
-198 -71 0
198 46 -45 47 86 -13 62 -85 -79 -6 71 0
-199 52 0
-199 90 0
-199 -40 0
-199 36 0
-199 -61 0
-199 14 0
-199 1 0
-199 67 0
-199 -98 0
-199 -88 0
199 -52 -90 40 -36 61 -14 -1 -67 98 88 0
-200 -53 0
-200 -69 0
-200 -17 0
-200 -20 0
-200 -78 0
-200 -75 0
-200 -28 0
-200 97 0
-200 -66 0
-200 -51 0
200 53 69 17 20 78 75 28 -97 66 51 0
191 192 193 194 195 196 197 198 199 200 0
